285 5
10 10 10 10 10 

0 0 0 0 0 0 3 2 14 26 
0 0 0 0 0 0 1 3 
9 0 0 0 0 4 2 5 4 
1 0 0 0 0 8 3 10 7 6 
8 0 0 0 0 6 3 10 7 6 
9 0 0 0 0 10 3 12 9 8 
8 0 0 0 0 5 1 8 
9 0 0 0 0 7 1 11 
5 0 0 0 0 9 1 11 
10 0 0 0 0 9 1 11 
6 0 0 0 0 7 1 13 
1 0 0 0 0 10 1 13 
0 0 0 0 0 0 1 38 
0 0 0 0 0 0 3 15 17 19 
9 4 0 0 0 0 1 16 
6 5 0 0 0 0 3 22 20 18 
1 9 0 0 0 0 3 22 21 20 
4 6 0 0 0 0 2 24 21 
9 10 0 0 0 0 1 20 
9 10 0 0 0 0 2 24 23 
1 4 0 0 0 0 1 23 
3 9 0 0 0 0 1 23 
4 9 0 0 0 0 1 25 
2 9 0 0 0 0 1 25 
0 0 0 0 0 0 1 38 
0 0 0 0 0 0 3 27 30 34 
9 0 0 0 0 3 2 32 28 
10 0 0 0 0 8 1 29 
1 0 0 0 0 7 2 33 31 
1 0 0 0 0 10 2 33 32 
9 0 0 0 0 10 2 36 35 
3 0 0 0 0 7 2 36 35 
9 0 0 0 0 10 1 35 
2 0 0 0 0 6 1 35 
5 0 0 0 0 5 1 37 
4 0 0 0 0 9 1 37 
0 0 0 0 0 0 1 38 
0 0 0 0 0 0 5 39 51 63 75 87 
0 0 0 0 0 0 1 40 
2 0 2 0 0 0 4 47 46 43 41 
1 0 8 0 0 0 1 42 
3 0 10 0 0 0 2 45 44 
2 0 10 0 0 0 2 48 44 
6 0 8 0 0 0 1 49 
5 0 5 0 0 0 1 48 
1 0 7 0 0 0 1 49 
8 0 9 0 0 0 1 48 
3 0 9 0 0 0 1 50 
10 0 7 0 0 0 1 50 
0 0 0 0 0 0 1 99 
0 0 0 0 0 0 3 52 57 58 
4 0 0 2 0 0 2 55 53 
6 0 0 8 0 0 2 61 54 
6 0 0 6 0 0 2 60 56 
6 0 0 5 0 0 2 60 59 
2 0 0 9 0 0 1 59 
3 0 0 9 0 0 1 60 
7 0 0 10 0 0 1 59 
6 0 0 6 0 0 1 62 
5 0 0 10 0 0 1 62 
3 0 0 10 0 0 1 62 
0 0 0 0 0 0 1 99 
0 0 0 0 0 0 2 64 66 
3 0 6 0 0 0 2 67 65 
4 0 3 0 0 0 3 73 69 68 
4 0 10 0 0 0 1 67 
4 0 9 0 0 0 2 72 69 
8 0 5 0 0 0 2 72 71 
8 0 8 0 0 0 1 70 
1 0 8 0 0 0 1 71 
8 0 10 0 0 0 1 74 
8 0 8 0 0 0 1 74 
5 0 8 0 0 0 1 74 
0 0 0 0 0 0 1 99 
0 0 0 0 0 0 2 76 78 
7 0 0 2 0 0 1 77 
9 0 0 10 0 0 2 85 79 
5 0 0 6 0 0 1 80 
3 0 0 10 0 0 3 84 83 81 
3 0 0 10 0 0 3 84 83 81 
3 0 0 4 0 0 1 82 
6 0 0 10 0 0 1 86 
3 0 0 7 0 0 1 86 
6 0 0 8 0 0 1 86 
1 0 0 8 0 0 1 86 
0 0 0 0 0 0 1 99 
0 0 0 0 0 0 3 88 89 90 
10 0 0 0 7 0 3 97 94 91 
3 0 0 0 4 0 3 96 94 92 
8 0 0 0 10 0 1 91 
10 0 0 0 7 0 2 96 92 
8 0 0 0 4 0 1 93 
2 0 0 0 10 0 1 95 
7 0 0 0 10 0 1 95 
4 0 0 0 10 0 1 98 
3 0 0 0 3 0 1 98 
7 0 0 0 10 0 1 98 
0 0 0 0 0 0 1 99 
0 0 0 0 0 0 5 100 122 144 166 178 
0 0 0 0 0 0 2 101 120 
5 2 0 5 0 0 1 102 
6 10 0 10 0 0 2 105 103 
7 6 0 8 0 0 1 104 
3 4 0 8 0 0 2 114 106 
10 10 0 6 0 0 1 106 
3 10 0 7 0 0 4 112 111 109 107 
5 6 0 10 0 0 1 108 
9 8 0 7 0 0 2 118 110 
8 10 0 10 0 0 2 118 110 
9 10 0 10 0 0 2 117 113 
9 9 0 5 0 0 2 117 113 
4 4 0 4 0 0 2 117 113 
7 10 0 8 0 0 2 116 115 
4 8 0 6 0 0 1 119 
2 10 0 8 0 0 1 121 
4 6 0 4 0 0 1 121 
9 8 0 10 0 0 1 121 
1 8 0 8 0 0 1 121 
4 5 0 9 0 0 1 121 
4 6 0 7 0 0 1 121 
0 0 0 0 0 0 1 248 
0 0 0 0 0 0 3 123 126 130 
6 0 6 0 7 0 2 131 124 
1 0 7 0 9 0 2 142 125 
7 0 10 0 3 0 3 141 132 127 
10 0 5 0 4 0 4 138 137 133 131 
10 0 9 0 9 0 1 128 
5 0 8 0 7 0 2 137 129 
2 0 7 0 7 0 3 140 135 133 
3 0 6 0 10 0 3 140 135 133 
7 0 4 0 6 0 2 140 135 
4 0 10 0 7 0 1 133 
9 0 8 0 7 0 1 134 
10 0 10 0 4 0 1 136 
2 0 9 0 10 0 1 136 
8 0 9 0 10 0 1 139 
9 0 8 0 10 0 1 140 
10 0 10 0 9 0 1 141 
9 0 5 0 5 0 1 143 
3 0 5 0 9 0 1 143 
8 0 4 0 7 0 1 143 
7 0 10 0 10 0 1 143 
0 0 0 0 0 0 1 248 
0 0 0 0 0 0 2 145 146 
9 0 4 0 0 3 2 151 147 
8 0 5 0 0 5 3 159 150 149 
1 0 7 0 0 10 1 148 
9 0 10 0 0 6 3 159 154 150 
9 0 7 0 0 8 3 154 152 151 
5 0 10 0 0 8 1 152 
5 0 4 0 0 10 3 162 156 155 
1 0 8 0 0 10 1 153 
3 0 8 0 0 10 3 162 161 155 
6 0 7 0 0 5 3 162 161 155 
8 0 10 0 0 4 2 158 157 
9 0 10 0 0 7 2 161 160 
8 0 7 0 0 8 1 160 
1 0 10 0 0 10 1 160 
8 0 8 0 0 6 1 161 
5 0 7 0 0 7 1 163 
5 0 8 0 0 8 1 163 
8 0 8 0 0 6 1 164 
4 0 6 0 0 9 1 165 
9 0 6 0 0 10 1 165 
0 0 0 0 0 0 1 248 
0 0 0 0 0 0 5 167 170 172 175 176 
7 0 1 0 0 0 1 168 
6 0 7 0 0 0 2 174 169 
2 0 10 0 0 0 1 171 
6 0 8 0 0 0 1 171 
10 0 9 0 0 0 1 173 
6 0 10 0 0 0 1 173 
8 0 3 0 0 0 1 177 
6 0 7 0 0 0 1 177 
1 0 10 0 0 0 1 177 
5 0 10 0 0 0 1 177 
0 0 0 0 0 0 4 200 212 224 236 
0 0 0 0 0 0 1 179 
1 0 0 3 7 0 1 180 
4 0 0 10 7 0 2 182 181 
6 0 0 8 6 0 2 185 183 
8 0 0 8 7 0 1 183 
7 0 0 9 5 0 2 186 184 
1 0 0 9 8 0 3 189 188 187 
10 0 0 6 5 0 2 187 186 
4 0 0 8 8 0 3 193 191 190 
1 0 0 8 10 0 2 191 190 
8 0 0 3 7 0 2 193 191 
3 0 0 6 10 0 1 190 
4 0 0 6 4 0 2 195 192 
6 0 0 10 6 0 2 195 192 
8 0 0 9 10 0 2 197 194 
4 0 0 10 10 0 2 197 195 
1 0 0 8 4 0 2 198 196 
3 0 0 9 9 0 1 196 
3 0 0 8 10 0 1 199 
8 0 0 6 7 0 1 199 
5 0 0 6 10 0 1 199 
0 0 0 0 0 0 1 248 
0 0 0 0 0 0 4 201 203 205 207 
6 0 0 0 5 0 3 210 209 202 
3 0 0 0 8 0 1 204 
3 0 0 0 10 0 1 204 
8 0 0 0 8 0 1 206 
6 0 0 0 10 0 1 206 
1 0 0 0 2 0 1 208 
9 0 0 0 10 0 1 209 
3 0 0 0 7 0 1 211 
7 0 0 0 10 0 1 211 
4 0 0 0 5 0 1 211 
0 0 0 0 0 0 1 248 
0 0 0 0 0 0 3 213 214 215 
8 0 0 0 6 0 2 217 216 
9 0 0 0 9 0 2 217 216 
2 0 0 0 7 0 2 217 216 
5 0 0 0 10 0 2 219 218 
3 0 0 0 5 0 2 222 220 
9 0 0 0 8 0 2 222 221 
1 0 0 0 8 0 1 220 
1 0 0 0 10 0 1 221 
5 0 0 0 5 0 1 223 
10 0 0 0 7 0 1 223 
0 0 0 0 0 0 1 248 
0 0 0 0 0 0 3 225 226 227 
10 0 0 4 0 0 2 230 228 
1 0 0 6 0 0 2 230 228 
6 0 0 4 0 0 1 228 
7 0 0 10 0 0 2 231 229 
9 0 0 10 0 0 2 234 233 
3 0 0 10 0 0 2 234 233 
2 0 0 9 0 0 1 232 
4 0 0 8 0 0 1 233 
9 0 0 7 0 0 1 235 
2 0 0 7 0 0 1 235 
0 0 0 0 0 0 1 248 
0 0 0 0 0 0 4 237 239 245 246 
1 0 0 1 0 0 2 243 238 
7 0 0 10 0 0 2 244 240 
1 0 0 6 0 0 2 243 240 
6 0 0 10 0 0 1 241 
9 0 0 8 0 0 1 242 
7 0 0 6 0 0 1 247 
2 0 0 10 0 0 1 247 
10 0 0 7 0 0 1 247 
7 0 0 10 0 0 1 247 
1 0 0 7 0 0 1 247 
0 0 0 0 0 0 1 248 
0 0 0 0 0 0 3 249 261 273 
0 0 0 0 0 0 3 250 251 257 
4 0 0 0 0 4 2 256 254 
7 0 0 0 0 10 1 252 
5 0 0 0 0 10 2 259 253 
7 0 0 0 0 6 1 255 
2 0 0 0 0 6 1 255 
1 0 0 0 0 10 1 258 
3 0 0 0 0 9 1 259 
5 0 0 0 0 7 1 258 
7 0 0 0 0 5 1 260 
2 0 0 0 0 8 1 260 
0 0 0 0 0 0 1 285 
0 0 0 0 0 0 3 262 265 271 
7 0 0 0 0 4 2 264 263 
10 0 0 0 0 6 3 270 269 266 
1 0 0 0 0 9 2 270 267 
9 0 0 0 0 8 2 269 268 
3 0 0 0 0 8 1 267 
10 0 0 0 0 10 1 268 
4 0 0 0 0 10 1 272 
3 0 0 0 0 7 1 272 
2 0 0 0 0 6 1 272 
1 0 0 0 0 7 1 272 
0 0 0 0 0 0 1 285 
0 0 0 0 0 0 1 274 
6 0 3 0 0 0 2 276 275 
7 0 7 0 0 0 2 278 277 
10 0 8 0 0 0 2 278 277 
9 0 10 0 0 0 4 282 281 280 279 
9 0 3 0 0 0 4 282 281 280 279 
8 0 7 0 0 0 1 283 
5 0 10 0 0 0 1 283 
4 0 8 0 0 0 1 283 
3 0 10 0 0 0 1 283 
2 0 9 0 0 0 1 284 
0 0 0 0 0 0 1 285 
0 0 0 0 0 0 0 
